units               real
 
atom_style          full
 
pair_style          lj/charmmfsw/coul/long    11.0    12.0    12.0
 
bond_style          harmonic
 
angle_style         harmonic
 
dihedral_style      charmmfsw
 
special_bonds       amber
 
pair_modify         mix  arithmetic
 
kspace_style        pppm  1.0e-5
 
pair_coeff          1     2    0.041444    3.024601
 
